c FILE: queen11_11.col
c Translated from Stanford GraphBase File: queen11_11.gb
c Stanford GraphBase ID: gunion(board(11,11,0,0,-1,0,0),board(11,11,0,0,-2,0,0),0,0)
p edge 121 3960
e 1 13
e 1 25
e 1 37
e 1 49
e 1 61
e 1 73
e 1 85
e 1 97
e 1 109
e 1 121
e 1 2
e 1 3
e 1 4
e 1 5
e 1 6
e 1 7
e 1 8
e 1 9
e 1 10
e 1 11
e 1 12
e 1 23
e 1 34
e 1 45
e 1 56
e 1 67
e 1 78
e 1 89
e 1 100
e 1 111
e 2 14
e 2 26
e 2 38
e 2 50
e 2 62
e 2 74
e 2 86
e 2 98
e 2 110
e 2 12
e 2 3
e 2 4
e 2 5
e 2 6
e 2 7
e 2 8
e 2 9
e 2 10
e 2 11
e 2 13
e 2 24
e 2 35
e 2 46
e 2 57
e 2 68
e 2 79
e 2 90
e 2 101
e 2 112
e 2 1
e 3 15
e 3 27
e 3 39
e 3 51
e 3 63
e 3 75
e 3 87
e 3 99
e 3 13
e 3 23
e 3 4
e 3 5
e 3 6
e 3 7
e 3 8
e 3 9
e 3 10
e 3 11
e 3 14
e 3 25
e 3 36
e 3 47
e 3 58
e 3 69
e 3 80
e 3 91
e 3 102
e 3 113
e 3 2
e 3 1
e 4 16
e 4 28
e 4 40
e 4 52
e 4 64
e 4 76
e 4 88
e 4 14
e 4 24
e 4 34
e 4 5
e 4 6
e 4 7
e 4 8
e 4 9
e 4 10
e 4 11
e 4 15
e 4 26
e 4 37
e 4 48
e 4 59
e 4 70
e 4 81
e 4 92
e 4 103
e 4 114
e 4 3
e 4 2
e 4 1
e 5 17
e 5 29
e 5 41
e 5 53
e 5 65
e 5 77
e 5 15
e 5 25
e 5 35
e 5 45
e 5 6
e 5 7
e 5 8
e 5 9
e 5 10
e 5 11
e 5 16
e 5 27
e 5 38
e 5 49
e 5 60
e 5 71
e 5 82
e 5 93
e 5 104
e 5 115
e 5 4
e 5 3
e 5 2
e 5 1
e 6 18
e 6 30
e 6 42
e 6 54
e 6 66
e 6 16
e 6 26
e 6 36
e 6 46
e 6 56
e 6 7
e 6 8
e 6 9
e 6 10
e 6 11
e 6 17
e 6 28
e 6 39
e 6 50
e 6 61
e 6 72
e 6 83
e 6 94
e 6 105
e 6 116
e 6 5
e 6 4
e 6 3
e 6 2
e 6 1
e 7 19
e 7 31
e 7 43
e 7 55
e 7 17
e 7 27
e 7 37
e 7 47
e 7 57
e 7 67
e 7 8
e 7 9
e 7 10
e 7 11
e 7 18
e 7 29
e 7 40
e 7 51
e 7 62
e 7 73
e 7 84
e 7 95
e 7 106
e 7 117
e 7 6
e 7 5
e 7 4
e 7 3
e 7 2
e 7 1
e 8 20
e 8 32
e 8 44
e 8 18
e 8 28
e 8 38
e 8 48
e 8 58
e 8 68
e 8 78
e 8 9
e 8 10
e 8 11
e 8 19
e 8 30
e 8 41
e 8 52
e 8 63
e 8 74
e 8 85
e 8 96
e 8 107
e 8 118
e 8 7
e 8 6
e 8 5
e 8 4
e 8 3
e 8 2
e 8 1
e 9 21
e 9 33
e 9 19
e 9 29
e 9 39
e 9 49
e 9 59
e 9 69
e 9 79
e 9 89
e 9 10
e 9 11
e 9 20
e 9 31
e 9 42
e 9 53
e 9 64
e 9 75
e 9 86
e 9 97
e 9 108
e 9 119
e 9 8
e 9 7
e 9 6
e 9 5
e 9 4
e 9 3
e 9 2
e 9 1
e 10 22
e 10 20
e 10 30
e 10 40
e 10 50
e 10 60
e 10 70
e 10 80
e 10 90
e 10 100
e 10 11
e 10 21
e 10 32
e 10 43
e 10 54
e 10 65
e 10 76
e 10 87
e 10 98
e 10 109
e 10 120
e 10 9
e 10 8
e 10 7
e 10 6
e 10 5
e 10 4
e 10 3
e 10 2
e 10 1
e 11 21
e 11 31
e 11 41
e 11 51
e 11 61
e 11 71
e 11 81
e 11 91
e 11 101
e 11 111
e 11 22
e 11 33
e 11 44
e 11 55
e 11 66
e 11 77
e 11 88
e 11 99
e 11 110
e 11 121
e 11 10
e 11 9
e 11 8
e 11 7
e 11 6
e 11 5
e 11 4
e 11 3
e 11 2
e 11 1
e 12 24
e 12 36
e 12 48
e 12 60
e 12 72
e 12 84
e 12 96
e 12 108
e 12 120
e 12 13
e 12 14
e 12 15
e 12 16
e 12 17
e 12 18
e 12 19
e 12 20
e 12 21
e 12 22
e 12 23
e 12 34
e 12 45
e 12 56
e 12 67
e 12 78
e 12 89
e 12 100
e 12 111
e 12 2
e 12 1
e 13 25
e 13 37
e 13 49
e 13 61
e 13 73
e 13 85
e 13 97
e 13 109
e 13 121
e 13 23
e 13 14
e 13 15
e 13 16
e 13 17
e 13 18
e 13 19
e 13 20
e 13 21
e 13 22
e 13 24
e 13 35
e 13 46
e 13 57
e 13 68
e 13 79
e 13 90
e 13 101
e 13 112
e 13 12
e 13 3
e 13 2
e 13 1
e 14 26
e 14 38
e 14 50
e 14 62
e 14 74
e 14 86
e 14 98
e 14 110
e 14 24
e 14 34
e 14 15
e 14 16
e 14 17
e 14 18
e 14 19
e 14 20
e 14 21
e 14 22
e 14 25
e 14 36
e 14 47
e 14 58
e 14 69
e 14 80
e 14 91
e 14 102
e 14 113
e 14 13
e 14 12
e 14 4
e 14 3
e 14 2
e 15 27
e 15 39
e 15 51
e 15 63
e 15 75
e 15 87
e 15 99
e 15 25
e 15 35
e 15 45
e 15 16
e 15 17
e 15 18
e 15 19
e 15 20
e 15 21
e 15 22
e 15 26
e 15 37
e 15 48
e 15 59
e 15 70
e 15 81
e 15 92
e 15 103
e 15 114
e 15 14
e 15 13
e 15 12
e 15 5
e 15 4
e 15 3
e 16 28
e 16 40
e 16 52
e 16 64
e 16 76
e 16 88
e 16 26
e 16 36
e 16 46
e 16 56
e 16 17
e 16 18
e 16 19
e 16 20
e 16 21
e 16 22
e 16 27
e 16 38
e 16 49
e 16 60
e 16 71
e 16 82
e 16 93
e 16 104
e 16 115
e 16 15
e 16 14
e 16 13
e 16 12
e 16 6
e 16 5
e 16 4
e 17 29
e 17 41
e 17 53
e 17 65
e 17 77
e 17 27
e 17 37
e 17 47
e 17 57
e 17 67
e 17 18
e 17 19
e 17 20
e 17 21
e 17 22
e 17 28
e 17 39
e 17 50
e 17 61
e 17 72
e 17 83
e 17 94
e 17 105
e 17 116
e 17 16
e 17 15
e 17 14
e 17 13
e 17 12
e 17 7
e 17 6
e 17 5
e 18 30
e 18 42
e 18 54
e 18 66
e 18 28
e 18 38
e 18 48
e 18 58
e 18 68
e 18 78
e 18 19
e 18 20
e 18 21
e 18 22
e 18 29
e 18 40
e 18 51
e 18 62
e 18 73
e 18 84
e 18 95
e 18 106
e 18 117
e 18 17
e 18 16
e 18 15
e 18 14
e 18 13
e 18 12
e 18 8
e 18 7
e 18 6
e 19 31
e 19 43
e 19 55
e 19 29
e 19 39
e 19 49
e 19 59
e 19 69
e 19 79
e 19 89
e 19 20
e 19 21
e 19 22
e 19 30
e 19 41
e 19 52
e 19 63
e 19 74
e 19 85
e 19 96
e 19 107
e 19 118
e 19 18
e 19 17
e 19 16
e 19 15
e 19 14
e 19 13
e 19 12
e 19 9
e 19 8
e 19 7
e 20 32
e 20 44
e 20 30
e 20 40
e 20 50
e 20 60
e 20 70
e 20 80
e 20 90
e 20 100
e 20 21
e 20 22
e 20 31
e 20 42
e 20 53
e 20 64
e 20 75
e 20 86
e 20 97
e 20 108
e 20 119
e 20 19
e 20 18
e 20 17
e 20 16
e 20 15
e 20 14
e 20 13
e 20 12
e 20 10
e 20 9
e 20 8
e 21 33
e 21 31
e 21 41
e 21 51
e 21 61
e 21 71
e 21 81
e 21 91
e 21 101
e 21 111
e 21 22
e 21 32
e 21 43
e 21 54
e 21 65
e 21 76
e 21 87
e 21 98
e 21 109
e 21 120
e 21 20
e 21 19
e 21 18
e 21 17
e 21 16
e 21 15
e 21 14
e 21 13
e 21 12
e 21 11
e 21 10
e 21 9
e 22 32
e 22 42
e 22 52
e 22 62
e 22 72
e 22 82
e 22 92
e 22 102
e 22 112
e 22 33
e 22 44
e 22 55
e 22 66
e 22 77
e 22 88
e 22 99
e 22 110
e 22 121
e 22 21
e 22 20
e 22 19
e 22 18
e 22 17
e 22 16
e 22 15
e 22 14
e 22 13
e 22 12
e 22 11
e 22 10
e 23 35
e 23 47
e 23 59
e 23 71
e 23 83
e 23 95
e 23 107
e 23 119
e 23 24
e 23 25
e 23 26
e 23 27
e 23 28
e 23 29
e 23 30
e 23 31
e 23 32
e 23 33
e 23 34
e 23 45
e 23 56
e 23 67
e 23 78
e 23 89
e 23 100
e 23 111
e 23 13
e 23 12
e 23 3
e 23 1
e 24 36
e 24 48
e 24 60
e 24 72
e 24 84
e 24 96
e 24 108
e 24 120
e 24 34
e 24 25
e 24 26
e 24 27
e 24 28
e 24 29
e 24 30
e 24 31
e 24 32
e 24 33
e 24 35
e 24 46
e 24 57
e 24 68
e 24 79
e 24 90
e 24 101
e 24 112
e 24 23
e 24 14
e 24 13
e 24 12
e 24 4
e 24 2
e 25 37
e 25 49
e 25 61
e 25 73
e 25 85
e 25 97
e 25 109
e 25 121
e 25 35
e 25 45
e 25 26
e 25 27
e 25 28
e 25 29
e 25 30
e 25 31
e 25 32
e 25 33
e 25 36
e 25 47
e 25 58
e 25 69
e 25 80
e 25 91
e 25 102
e 25 113
e 25 24
e 25 23
e 25 15
e 25 14
e 25 13
e 25 5
e 25 3
e 25 1
e 26 38
e 26 50
e 26 62
e 26 74
e 26 86
e 26 98
e 26 110
e 26 36
e 26 46
e 26 56
e 26 27
e 26 28
e 26 29
e 26 30
e 26 31
e 26 32
e 26 33
e 26 37
e 26 48
e 26 59
e 26 70
e 26 81
e 26 92
e 26 103
e 26 114
e 26 25
e 26 24
e 26 23
e 26 16
e 26 15
e 26 14
e 26 6
e 26 4
e 26 2
e 27 39
e 27 51
e 27 63
e 27 75
e 27 87
e 27 99
e 27 37
e 27 47
e 27 57
e 27 67
e 27 28
e 27 29
e 27 30
e 27 31
e 27 32
e 27 33
e 27 38
e 27 49
e 27 60
e 27 71
e 27 82
e 27 93
e 27 104
e 27 115
e 27 26
e 27 25
e 27 24
e 27 23
e 27 17
e 27 16
e 27 15
e 27 7
e 27 5
e 27 3
e 28 40
e 28 52
e 28 64
e 28 76
e 28 88
e 28 38
e 28 48
e 28 58
e 28 68
e 28 78
e 28 29
e 28 30
e 28 31
e 28 32
e 28 33
e 28 39
e 28 50
e 28 61
e 28 72
e 28 83
e 28 94
e 28 105
e 28 116
e 28 27
e 28 26
e 28 25
e 28 24
e 28 23
e 28 18
e 28 17
e 28 16
e 28 8
e 28 6
e 28 4
e 29 41
e 29 53
e 29 65
e 29 77
e 29 39
e 29 49
e 29 59
e 29 69
e 29 79
e 29 89
e 29 30
e 29 31
e 29 32
e 29 33
e 29 40
e 29 51
e 29 62
e 29 73
e 29 84
e 29 95
e 29 106
e 29 117
e 29 28
e 29 27
e 29 26
e 29 25
e 29 24
e 29 23
e 29 19
e 29 18
e 29 17
e 29 9
e 29 7
e 29 5
e 30 42
e 30 54
e 30 66
e 30 40
e 30 50
e 30 60
e 30 70
e 30 80
e 30 90
e 30 100
e 30 31
e 30 32
e 30 33
e 30 41
e 30 52
e 30 63
e 30 74
e 30 85
e 30 96
e 30 107
e 30 118
e 30 29
e 30 28
e 30 27
e 30 26
e 30 25
e 30 24
e 30 23
e 30 20
e 30 19
e 30 18
e 30 10
e 30 8
e 30 6
e 31 43
e 31 55
e 31 41
e 31 51
e 31 61
e 31 71
e 31 81
e 31 91
e 31 101
e 31 111
e 31 32
e 31 33
e 31 42
e 31 53
e 31 64
e 31 75
e 31 86
e 31 97
e 31 108
e 31 119
e 31 30
e 31 29
e 31 28
e 31 27
e 31 26
e 31 25
e 31 24
e 31 23
e 31 21
e 31 20
e 31 19
e 31 11
e 31 9
e 31 7
e 32 44
e 32 42
e 32 52
e 32 62
e 32 72
e 32 82
e 32 92
e 32 102
e 32 112
e 32 33
e 32 43
e 32 54
e 32 65
e 32 76
e 32 87
e 32 98
e 32 109
e 32 120
e 32 31
e 32 30
e 32 29
e 32 28
e 32 27
e 32 26
e 32 25
e 32 24
e 32 23
e 32 22
e 32 21
e 32 20
e 32 10
e 32 8
e 33 43
e 33 53
e 33 63
e 33 73
e 33 83
e 33 93
e 33 103
e 33 113
e 33 44
e 33 55
e 33 66
e 33 77
e 33 88
e 33 99
e 33 110
e 33 121
e 33 32
e 33 31
e 33 30
e 33 29
e 33 28
e 33 27
e 33 26
e 33 25
e 33 24
e 33 23
e 33 22
e 33 21
e 33 11
e 33 9
e 34 46
e 34 58
e 34 70
e 34 82
e 34 94
e 34 106
e 34 118
e 34 35
e 34 36
e 34 37
e 34 38
e 34 39
e 34 40
e 34 41
e 34 42
e 34 43
e 34 44
e 34 45
e 34 56
e 34 67
e 34 78
e 34 89
e 34 100
e 34 111
e 34 24
e 34 23
e 34 14
e 34 12
e 34 4
e 34 1
e 35 47
e 35 59
e 35 71
e 35 83
e 35 95
e 35 107
e 35 119
e 35 45
e 35 36
e 35 37
e 35 38
e 35 39
e 35 40
e 35 41
e 35 42
e 35 43
e 35 44
e 35 46
e 35 57
e 35 68
e 35 79
e 35 90
e 35 101
e 35 112
e 35 34
e 35 25
e 35 24
e 35 23
e 35 15
e 35 13
e 35 5
e 35 2
e 36 48
e 36 60
e 36 72
e 36 84
e 36 96
e 36 108
e 36 120
e 36 46
e 36 56
e 36 37
e 36 38
e 36 39
e 36 40
e 36 41
e 36 42
e 36 43
e 36 44
e 36 47
e 36 58
e 36 69
e 36 80
e 36 91
e 36 102
e 36 113
e 36 35
e 36 34
e 36 26
e 36 25
e 36 24
e 36 16
e 36 14
e 36 12
e 36 6
e 36 3
e 37 49
e 37 61
e 37 73
e 37 85
e 37 97
e 37 109
e 37 121
e 37 47
e 37 57
e 37 67
e 37 38
e 37 39
e 37 40
e 37 41
e 37 42
e 37 43
e 37 44
e 37 48
e 37 59
e 37 70
e 37 81
e 37 92
e 37 103
e 37 114
e 37 36
e 37 35
e 37 34
e 37 27
e 37 26
e 37 25
e 37 17
e 37 15
e 37 13
e 37 7
e 37 4
e 37 1
e 38 50
e 38 62
e 38 74
e 38 86
e 38 98
e 38 110
e 38 48
e 38 58
e 38 68
e 38 78
e 38 39
e 38 40
e 38 41
e 38 42
e 38 43
e 38 44
e 38 49
e 38 60
e 38 71
e 38 82
e 38 93
e 38 104
e 38 115
e 38 37
e 38 36
e 38 35
e 38 34
e 38 28
e 38 27
e 38 26
e 38 18
e 38 16
e 38 14
e 38 8
e 38 5
e 38 2
e 39 51
e 39 63
e 39 75
e 39 87
e 39 99
e 39 49
e 39 59
e 39 69
e 39 79
e 39 89
e 39 40
e 39 41
e 39 42
e 39 43
e 39 44
e 39 50
e 39 61
e 39 72
e 39 83
e 39 94
e 39 105
e 39 116
e 39 38
e 39 37
e 39 36
e 39 35
e 39 34
e 39 29
e 39 28
e 39 27
e 39 19
e 39 17
e 39 15
e 39 9
e 39 6
e 39 3
e 40 52
e 40 64
e 40 76
e 40 88
e 40 50
e 40 60
e 40 70
e 40 80
e 40 90
e 40 100
e 40 41
e 40 42
e 40 43
e 40 44
e 40 51
e 40 62
e 40 73
e 40 84
e 40 95
e 40 106
e 40 117
e 40 39
e 40 38
e 40 37
e 40 36
e 40 35
e 40 34
e 40 30
e 40 29
e 40 28
e 40 20
e 40 18
e 40 16
e 40 10
e 40 7
e 40 4
e 41 53
e 41 65
e 41 77
e 41 51
e 41 61
e 41 71
e 41 81
e 41 91
e 41 101
e 41 111
e 41 42
e 41 43
e 41 44
e 41 52
e 41 63
e 41 74
e 41 85
e 41 96
e 41 107
e 41 118
e 41 40
e 41 39
e 41 38
e 41 37
e 41 36
e 41 35
e 41 34
e 41 31
e 41 30
e 41 29
e 41 21
e 41 19
e 41 17
e 41 11
e 41 8
e 41 5
e 42 54
e 42 66
e 42 52
e 42 62
e 42 72
e 42 82
e 42 92
e 42 102
e 42 112
e 42 43
e 42 44
e 42 53
e 42 64
e 42 75
e 42 86
e 42 97
e 42 108
e 42 119
e 42 41
e 42 40
e 42 39
e 42 38
e 42 37
e 42 36
e 42 35
e 42 34
e 42 32
e 42 31
e 42 30
e 42 22
e 42 20
e 42 18
e 42 9
e 42 6
e 43 55
e 43 53
e 43 63
e 43 73
e 43 83
e 43 93
e 43 103
e 43 113
e 43 44
e 43 54
e 43 65
e 43 76
e 43 87
e 43 98
e 43 109
e 43 120
e 43 42
e 43 41
e 43 40
e 43 39
e 43 38
e 43 37
e 43 36
e 43 35
e 43 34
e 43 33
e 43 32
e 43 31
e 43 21
e 43 19
e 43 10
e 43 7
e 44 54
e 44 64
e 44 74
e 44 84
e 44 94
e 44 104
e 44 114
e 44 55
e 44 66
e 44 77
e 44 88
e 44 99
e 44 110
e 44 121
e 44 43
e 44 42
e 44 41
e 44 40
e 44 39
e 44 38
e 44 37
e 44 36
e 44 35
e 44 34
e 44 33
e 44 32
e 44 22
e 44 20
e 44 11
e 44 8
e 45 57
e 45 69
e 45 81
e 45 93
e 45 105
e 45 117
e 45 46
e 45 47
e 45 48
e 45 49
e 45 50
e 45 51
e 45 52
e 45 53
e 45 54
e 45 55
e 45 56
e 45 67
e 45 78
e 45 89
e 45 100
e 45 111
e 45 35
e 45 34
e 45 25
e 45 23
e 45 15
e 45 12
e 45 5
e 45 1
e 46 58
e 46 70
e 46 82
e 46 94
e 46 106
e 46 118
e 46 56
e 46 47
e 46 48
e 46 49
e 46 50
e 46 51
e 46 52
e 46 53
e 46 54
e 46 55
e 46 57
e 46 68
e 46 79
e 46 90
e 46 101
e 46 112
e 46 45
e 46 36
e 46 35
e 46 34
e 46 26
e 46 24
e 46 16
e 46 13
e 46 6
e 46 2
e 47 59
e 47 71
e 47 83
e 47 95
e 47 107
e 47 119
e 47 57
e 47 67
e 47 48
e 47 49
e 47 50
e 47 51
e 47 52
e 47 53
e 47 54
e 47 55
e 47 58
e 47 69
e 47 80
e 47 91
e 47 102
e 47 113
e 47 46
e 47 45
e 47 37
e 47 36
e 47 35
e 47 27
e 47 25
e 47 23
e 47 17
e 47 14
e 47 7
e 47 3
e 48 60
e 48 72
e 48 84
e 48 96
e 48 108
e 48 120
e 48 58
e 48 68
e 48 78
e 48 49
e 48 50
e 48 51
e 48 52
e 48 53
e 48 54
e 48 55
e 48 59
e 48 70
e 48 81
e 48 92
e 48 103
e 48 114
e 48 47
e 48 46
e 48 45
e 48 38
e 48 37
e 48 36
e 48 28
e 48 26
e 48 24
e 48 18
e 48 15
e 48 12
e 48 8
e 48 4
e 49 61
e 49 73
e 49 85
e 49 97
e 49 109
e 49 121
e 49 59
e 49 69
e 49 79
e 49 89
e 49 50
e 49 51
e 49 52
e 49 53
e 49 54
e 49 55
e 49 60
e 49 71
e 49 82
e 49 93
e 49 104
e 49 115
e 49 48
e 49 47
e 49 46
e 49 45
e 49 39
e 49 38
e 49 37
e 49 29
e 49 27
e 49 25
e 49 19
e 49 16
e 49 13
e 49 9
e 49 5
e 49 1
e 50 62
e 50 74
e 50 86
e 50 98
e 50 110
e 50 60
e 50 70
e 50 80
e 50 90
e 50 100
e 50 51
e 50 52
e 50 53
e 50 54
e 50 55
e 50 61
e 50 72
e 50 83
e 50 94
e 50 105
e 50 116
e 50 49
e 50 48
e 50 47
e 50 46
e 50 45
e 50 40
e 50 39
e 50 38
e 50 30
e 50 28
e 50 26
e 50 20
e 50 17
e 50 14
e 50 10
e 50 6
e 50 2
e 51 63
e 51 75
e 51 87
e 51 99
e 51 61
e 51 71
e 51 81
e 51 91
e 51 101
e 51 111
e 51 52
e 51 53
e 51 54
e 51 55
e 51 62
e 51 73
e 51 84
e 51 95
e 51 106
e 51 117
e 51 50
e 51 49
e 51 48
e 51 47
e 51 46
e 51 45
e 51 41
e 51 40
e 51 39
e 51 31
e 51 29
e 51 27
e 51 21
e 51 18
e 51 15
e 51 11
e 51 7
e 51 3
e 52 64
e 52 76
e 52 88
e 52 62
e 52 72
e 52 82
e 52 92
e 52 102
e 52 112
e 52 53
e 52 54
e 52 55
e 52 63
e 52 74
e 52 85
e 52 96
e 52 107
e 52 118
e 52 51
e 52 50
e 52 49
e 52 48
e 52 47
e 52 46
e 52 45
e 52 42
e 52 41
e 52 40
e 52 32
e 52 30
e 52 28
e 52 22
e 52 19
e 52 16
e 52 8
e 52 4
e 53 65
e 53 77
e 53 63
e 53 73
e 53 83
e 53 93
e 53 103
e 53 113
e 53 54
e 53 55
e 53 64
e 53 75
e 53 86
e 53 97
e 53 108
e 53 119
e 53 52
e 53 51
e 53 50
e 53 49
e 53 48
e 53 47
e 53 46
e 53 45
e 53 43
e 53 42
e 53 41
e 53 33
e 53 31
e 53 29
e 53 20
e 53 17
e 53 9
e 53 5
e 54 66
e 54 64
e 54 74
e 54 84
e 54 94
e 54 104
e 54 114
e 54 55
e 54 65
e 54 76
e 54 87
e 54 98
e 54 109
e 54 120
e 54 53
e 54 52
e 54 51
e 54 50
e 54 49
e 54 48
e 54 47
e 54 46
e 54 45
e 54 44
e 54 43
e 54 42
e 54 32
e 54 30
e 54 21
e 54 18
e 54 10
e 54 6
e 55 65
e 55 75
e 55 85
e 55 95
e 55 105
e 55 115
e 55 66
e 55 77
e 55 88
e 55 99
e 55 110
e 55 121
e 55 54
e 55 53
e 55 52
e 55 51
e 55 50
e 55 49
e 55 48
e 55 47
e 55 46
e 55 45
e 55 44
e 55 43
e 55 33
e 55 31
e 55 22
e 55 19
e 55 11
e 55 7
e 56 68
e 56 80
e 56 92
e 56 104
e 56 116
e 56 57
e 56 58
e 56 59
e 56 60
e 56 61
e 56 62
e 56 63
e 56 64
e 56 65
e 56 66
e 56 67
e 56 78
e 56 89
e 56 100
e 56 111
e 56 46
e 56 45
e 56 36
e 56 34
e 56 26
e 56 23
e 56 16
e 56 12
e 56 6
e 56 1
e 57 69
e 57 81
e 57 93
e 57 105
e 57 117
e 57 67
e 57 58
e 57 59
e 57 60
e 57 61
e 57 62
e 57 63
e 57 64
e 57 65
e 57 66
e 57 68
e 57 79
e 57 90
e 57 101
e 57 112
e 57 56
e 57 47
e 57 46
e 57 45
e 57 37
e 57 35
e 57 27
e 57 24
e 57 17
e 57 13
e 57 7
e 57 2
e 58 70
e 58 82
e 58 94
e 58 106
e 58 118
e 58 68
e 58 78
e 58 59
e 58 60
e 58 61
e 58 62
e 58 63
e 58 64
e 58 65
e 58 66
e 58 69
e 58 80
e 58 91
e 58 102
e 58 113
e 58 57
e 58 56
e 58 48
e 58 47
e 58 46
e 58 38
e 58 36
e 58 34
e 58 28
e 58 25
e 58 18
e 58 14
e 58 8
e 58 3
e 59 71
e 59 83
e 59 95
e 59 107
e 59 119
e 59 69
e 59 79
e 59 89
e 59 60
e 59 61
e 59 62
e 59 63
e 59 64
e 59 65
e 59 66
e 59 70
e 59 81
e 59 92
e 59 103
e 59 114
e 59 58
e 59 57
e 59 56
e 59 49
e 59 48
e 59 47
e 59 39
e 59 37
e 59 35
e 59 29
e 59 26
e 59 23
e 59 19
e 59 15
e 59 9
e 59 4
e 60 72
e 60 84
e 60 96
e 60 108
e 60 120
e 60 70
e 60 80
e 60 90
e 60 100
e 60 61
e 60 62
e 60 63
e 60 64
e 60 65
e 60 66
e 60 71
e 60 82
e 60 93
e 60 104
e 60 115
e 60 59
e 60 58
e 60 57
e 60 56
e 60 50
e 60 49
e 60 48
e 60 40
e 60 38
e 60 36
e 60 30
e 60 27
e 60 24
e 60 20
e 60 16
e 60 12
e 60 10
e 60 5
e 61 73
e 61 85
e 61 97
e 61 109
e 61 121
e 61 71
e 61 81
e 61 91
e 61 101
e 61 111
e 61 62
e 61 63
e 61 64
e 61 65
e 61 66
e 61 72
e 61 83
e 61 94
e 61 105
e 61 116
e 61 60
e 61 59
e 61 58
e 61 57
e 61 56
e 61 51
e 61 50
e 61 49
e 61 41
e 61 39
e 61 37
e 61 31
e 61 28
e 61 25
e 61 21
e 61 17
e 61 13
e 61 11
e 61 6
e 61 1
e 62 74
e 62 86
e 62 98
e 62 110
e 62 72
e 62 82
e 62 92
e 62 102
e 62 112
e 62 63
e 62 64
e 62 65
e 62 66
e 62 73
e 62 84
e 62 95
e 62 106
e 62 117
e 62 61
e 62 60
e 62 59
e 62 58
e 62 57
e 62 56
e 62 52
e 62 51
e 62 50
e 62 42
e 62 40
e 62 38
e 62 32
e 62 29
e 62 26
e 62 22
e 62 18
e 62 14
e 62 7
e 62 2
e 63 75
e 63 87
e 63 99
e 63 73
e 63 83
e 63 93
e 63 103
e 63 113
e 63 64
e 63 65
e 63 66
e 63 74
e 63 85
e 63 96
e 63 107
e 63 118
e 63 62
e 63 61
e 63 60
e 63 59
e 63 58
e 63 57
e 63 56
e 63 53
e 63 52
e 63 51
e 63 43
e 63 41
e 63 39
e 63 33
e 63 30
e 63 27
e 63 19
e 63 15
e 63 8
e 63 3
e 64 76
e 64 88
e 64 74
e 64 84
e 64 94
e 64 104
e 64 114
e 64 65
e 64 66
e 64 75
e 64 86
e 64 97
e 64 108
e 64 119
e 64 63
e 64 62
e 64 61
e 64 60
e 64 59
e 64 58
e 64 57
e 64 56
e 64 54
e 64 53
e 64 52
e 64 44
e 64 42
e 64 40
e 64 31
e 64 28
e 64 20
e 64 16
e 64 9
e 64 4
e 65 77
e 65 75
e 65 85
e 65 95
e 65 105
e 65 115
e 65 66
e 65 76
e 65 87
e 65 98
e 65 109
e 65 120
e 65 64
e 65 63
e 65 62
e 65 61
e 65 60
e 65 59
e 65 58
e 65 57
e 65 56
e 65 55
e 65 54
e 65 53
e 65 43
e 65 41
e 65 32
e 65 29
e 65 21
e 65 17
e 65 10
e 65 5
e 66 76
e 66 86
e 66 96
e 66 106
e 66 116
e 66 77
e 66 88
e 66 99
e 66 110
e 66 121
e 66 65
e 66 64
e 66 63
e 66 62
e 66 61
e 66 60
e 66 59
e 66 58
e 66 57
e 66 56
e 66 55
e 66 54
e 66 44
e 66 42
e 66 33
e 66 30
e 66 22
e 66 18
e 66 11
e 66 6
e 67 79
e 67 91
e 67 103
e 67 115
e 67 68
e 67 69
e 67 70
e 67 71
e 67 72
e 67 73
e 67 74
e 67 75
e 67 76
e 67 77
e 67 78
e 67 89
e 67 100
e 67 111
e 67 57
e 67 56
e 67 47
e 67 45
e 67 37
e 67 34
e 67 27
e 67 23
e 67 17
e 67 12
e 67 7
e 67 1
e 68 80
e 68 92
e 68 104
e 68 116
e 68 78
e 68 69
e 68 70
e 68 71
e 68 72
e 68 73
e 68 74
e 68 75
e 68 76
e 68 77
e 68 79
e 68 90
e 68 101
e 68 112
e 68 67
e 68 58
e 68 57
e 68 56
e 68 48
e 68 46
e 68 38
e 68 35
e 68 28
e 68 24
e 68 18
e 68 13
e 68 8
e 68 2
e 69 81
e 69 93
e 69 105
e 69 117
e 69 79
e 69 89
e 69 70
e 69 71
e 69 72
e 69 73
e 69 74
e 69 75
e 69 76
e 69 77
e 69 80
e 69 91
e 69 102
e 69 113
e 69 68
e 69 67
e 69 59
e 69 58
e 69 57
e 69 49
e 69 47
e 69 45
e 69 39
e 69 36
e 69 29
e 69 25
e 69 19
e 69 14
e 69 9
e 69 3
e 70 82
e 70 94
e 70 106
e 70 118
e 70 80
e 70 90
e 70 100
e 70 71
e 70 72
e 70 73
e 70 74
e 70 75
e 70 76
e 70 77
e 70 81
e 70 92
e 70 103
e 70 114
e 70 69
e 70 68
e 70 67
e 70 60
e 70 59
e 70 58
e 70 50
e 70 48
e 70 46
e 70 40
e 70 37
e 70 34
e 70 30
e 70 26
e 70 20
e 70 15
e 70 10
e 70 4
e 71 83
e 71 95
e 71 107
e 71 119
e 71 81
e 71 91
e 71 101
e 71 111
e 71 72
e 71 73
e 71 74
e 71 75
e 71 76
e 71 77
e 71 82
e 71 93
e 71 104
e 71 115
e 71 70
e 71 69
e 71 68
e 71 67
e 71 61
e 71 60
e 71 59
e 71 51
e 71 49
e 71 47
e 71 41
e 71 38
e 71 35
e 71 31
e 71 27
e 71 23
e 71 21
e 71 16
e 71 11
e 71 5
e 72 84
e 72 96
e 72 108
e 72 120
e 72 82
e 72 92
e 72 102
e 72 112
e 72 73
e 72 74
e 72 75
e 72 76
e 72 77
e 72 83
e 72 94
e 72 105
e 72 116
e 72 71
e 72 70
e 72 69
e 72 68
e 72 67
e 72 62
e 72 61
e 72 60
e 72 52
e 72 50
e 72 48
e 72 42
e 72 39
e 72 36
e 72 32
e 72 28
e 72 24
e 72 22
e 72 17
e 72 12
e 72 6
e 73 85
e 73 97
e 73 109
e 73 121
e 73 83
e 73 93
e 73 103
e 73 113
e 73 74
e 73 75
e 73 76
e 73 77
e 73 84
e 73 95
e 73 106
e 73 117
e 73 72
e 73 71
e 73 70
e 73 69
e 73 68
e 73 67
e 73 63
e 73 62
e 73 61
e 73 53
e 73 51
e 73 49
e 73 43
e 73 40
e 73 37
e 73 33
e 73 29
e 73 25
e 73 18
e 73 13
e 73 7
e 73 1
e 74 86
e 74 98
e 74 110
e 74 84
e 74 94
e 74 104
e 74 114
e 74 75
e 74 76
e 74 77
e 74 85
e 74 96
e 74 107
e 74 118
e 74 73
e 74 72
e 74 71
e 74 70
e 74 69
e 74 68
e 74 67
e 74 64
e 74 63
e 74 62
e 74 54
e 74 52
e 74 50
e 74 44
e 74 41
e 74 38
e 74 30
e 74 26
e 74 19
e 74 14
e 74 8
e 74 2
e 75 87
e 75 99
e 75 85
e 75 95
e 75 105
e 75 115
e 75 76
e 75 77
e 75 86
e 75 97
e 75 108
e 75 119
e 75 74
e 75 73
e 75 72
e 75 71
e 75 70
e 75 69
e 75 68
e 75 67
e 75 65
e 75 64
e 75 63
e 75 55
e 75 53
e 75 51
e 75 42
e 75 39
e 75 31
e 75 27
e 75 20
e 75 15
e 75 9
e 75 3
e 76 88
e 76 86
e 76 96
e 76 106
e 76 116
e 76 77
e 76 87
e 76 98
e 76 109
e 76 120
e 76 75
e 76 74
e 76 73
e 76 72
e 76 71
e 76 70
e 76 69
e 76 68
e 76 67
e 76 66
e 76 65
e 76 64
e 76 54
e 76 52
e 76 43
e 76 40
e 76 32
e 76 28
e 76 21
e 76 16
e 76 10
e 76 4
e 77 87
e 77 97
e 77 107
e 77 117
e 77 88
e 77 99
e 77 110
e 77 121
e 77 76
e 77 75
e 77 74
e 77 73
e 77 72
e 77 71
e 77 70
e 77 69
e 77 68
e 77 67
e 77 66
e 77 65
e 77 55
e 77 53
e 77 44
e 77 41
e 77 33
e 77 29
e 77 22
e 77 17
e 77 11
e 77 5
e 78 90
e 78 102
e 78 114
e 78 79
e 78 80
e 78 81
e 78 82
e 78 83
e 78 84
e 78 85
e 78 86
e 78 87
e 78 88
e 78 89
e 78 100
e 78 111
e 78 68
e 78 67
e 78 58
e 78 56
e 78 48
e 78 45
e 78 38
e 78 34
e 78 28
e 78 23
e 78 18
e 78 12
e 78 8
e 78 1
e 79 91
e 79 103
e 79 115
e 79 89
e 79 80
e 79 81
e 79 82
e 79 83
e 79 84
e 79 85
e 79 86
e 79 87
e 79 88
e 79 90
e 79 101
e 79 112
e 79 78
e 79 69
e 79 68
e 79 67
e 79 59
e 79 57
e 79 49
e 79 46
e 79 39
e 79 35
e 79 29
e 79 24
e 79 19
e 79 13
e 79 9
e 79 2
e 80 92
e 80 104
e 80 116
e 80 90
e 80 100
e 80 81
e 80 82
e 80 83
e 80 84
e 80 85
e 80 86
e 80 87
e 80 88
e 80 91
e 80 102
e 80 113
e 80 79
e 80 78
e 80 70
e 80 69
e 80 68
e 80 60
e 80 58
e 80 56
e 80 50
e 80 47
e 80 40
e 80 36
e 80 30
e 80 25
e 80 20
e 80 14
e 80 10
e 80 3
e 81 93
e 81 105
e 81 117
e 81 91
e 81 101
e 81 111
e 81 82
e 81 83
e 81 84
e 81 85
e 81 86
e 81 87
e 81 88
e 81 92
e 81 103
e 81 114
e 81 80
e 81 79
e 81 78
e 81 71
e 81 70
e 81 69
e 81 61
e 81 59
e 81 57
e 81 51
e 81 48
e 81 45
e 81 41
e 81 37
e 81 31
e 81 26
e 81 21
e 81 15
e 81 11
e 81 4
e 82 94
e 82 106
e 82 118
e 82 92
e 82 102
e 82 112
e 82 83
e 82 84
e 82 85
e 82 86
e 82 87
e 82 88
e 82 93
e 82 104
e 82 115
e 82 81
e 82 80
e 82 79
e 82 78
e 82 72
e 82 71
e 82 70
e 82 62
e 82 60
e 82 58
e 82 52
e 82 49
e 82 46
e 82 42
e 82 38
e 82 34
e 82 32
e 82 27
e 82 22
e 82 16
e 82 5
e 83 95
e 83 107
e 83 119
e 83 93
e 83 103
e 83 113
e 83 84
e 83 85
e 83 86
e 83 87
e 83 88
e 83 94
e 83 105
e 83 116
e 83 82
e 83 81
e 83 80
e 83 79
e 83 78
e 83 73
e 83 72
e 83 71
e 83 63
e 83 61
e 83 59
e 83 53
e 83 50
e 83 47
e 83 43
e 83 39
e 83 35
e 83 33
e 83 28
e 83 23
e 83 17
e 83 6
e 84 96
e 84 108
e 84 120
e 84 94
e 84 104
e 84 114
e 84 85
e 84 86
e 84 87
e 84 88
e 84 95
e 84 106
e 84 117
e 84 83
e 84 82
e 84 81
e 84 80
e 84 79
e 84 78
e 84 74
e 84 73
e 84 72
e 84 64
e 84 62
e 84 60
e 84 54
e 84 51
e 84 48
e 84 44
e 84 40
e 84 36
e 84 29
e 84 24
e 84 18
e 84 12
e 84 7
e 85 97
e 85 109
e 85 121
e 85 95
e 85 105
e 85 115
e 85 86
e 85 87
e 85 88
e 85 96
e 85 107
e 85 118
e 85 84
e 85 83
e 85 82
e 85 81
e 85 80
e 85 79
e 85 78
e 85 75
e 85 74
e 85 73
e 85 65
e 85 63
e 85 61
e 85 55
e 85 52
e 85 49
e 85 41
e 85 37
e 85 30
e 85 25
e 85 19
e 85 13
e 85 8
e 85 1
e 86 98
e 86 110
e 86 96
e 86 106
e 86 116
e 86 87
e 86 88
e 86 97
e 86 108
e 86 119
e 86 85
e 86 84
e 86 83
e 86 82
e 86 81
e 86 80
e 86 79
e 86 78
e 86 76
e 86 75
e 86 74
e 86 66
e 86 64
e 86 62
e 86 53
e 86 50
e 86 42
e 86 38
e 86 31
e 86 26
e 86 20
e 86 14
e 86 9
e 86 2
e 87 99
e 87 97
e 87 107
e 87 117
e 87 88
e 87 98
e 87 109
e 87 120
e 87 86
e 87 85
e 87 84
e 87 83
e 87 82
e 87 81
e 87 80
e 87 79
e 87 78
e 87 77
e 87 76
e 87 75
e 87 65
e 87 63
e 87 54
e 87 51
e 87 43
e 87 39
e 87 32
e 87 27
e 87 21
e 87 15
e 87 10
e 87 3
e 88 98
e 88 108
e 88 118
e 88 99
e 88 110
e 88 121
e 88 87
e 88 86
e 88 85
e 88 84
e 88 83
e 88 82
e 88 81
e 88 80
e 88 79
e 88 78
e 88 77
e 88 76
e 88 66
e 88 64
e 88 55
e 88 52
e 88 44
e 88 40
e 88 33
e 88 28
e 88 22
e 88 16
e 88 11
e 88 4
e 89 101
e 89 113
e 89 90
e 89 91
e 89 92
e 89 93
e 89 94
e 89 95
e 89 96
e 89 97
e 89 98
e 89 99
e 89 100
e 89 111
e 89 79
e 89 78
e 89 69
e 89 67
e 89 59
e 89 56
e 89 49
e 89 45
e 89 39
e 89 34
e 89 29
e 89 23
e 89 19
e 89 12
e 89 9
e 89 1
e 90 102
e 90 114
e 90 100
e 90 91
e 90 92
e 90 93
e 90 94
e 90 95
e 90 96
e 90 97
e 90 98
e 90 99
e 90 101
e 90 112
e 90 89
e 90 80
e 90 79
e 90 78
e 90 70
e 90 68
e 90 60
e 90 57
e 90 50
e 90 46
e 90 40
e 90 35
e 90 30
e 90 24
e 90 20
e 90 13
e 90 10
e 90 2
e 91 103
e 91 115
e 91 101
e 91 111
e 91 92
e 91 93
e 91 94
e 91 95
e 91 96
e 91 97
e 91 98
e 91 99
e 91 102
e 91 113
e 91 90
e 91 89
e 91 81
e 91 80
e 91 79
e 91 71
e 91 69
e 91 67
e 91 61
e 91 58
e 91 51
e 91 47
e 91 41
e 91 36
e 91 31
e 91 25
e 91 21
e 91 14
e 91 11
e 91 3
e 92 104
e 92 116
e 92 102
e 92 112
e 92 93
e 92 94
e 92 95
e 92 96
e 92 97
e 92 98
e 92 99
e 92 103
e 92 114
e 92 91
e 92 90
e 92 89
e 92 82
e 92 81
e 92 80
e 92 72
e 92 70
e 92 68
e 92 62
e 92 59
e 92 56
e 92 52
e 92 48
e 92 42
e 92 37
e 92 32
e 92 26
e 92 22
e 92 15
e 92 4
e 93 105
e 93 117
e 93 103
e 93 113
e 93 94
e 93 95
e 93 96
e 93 97
e 93 98
e 93 99
e 93 104
e 93 115
e 93 92
e 93 91
e 93 90
e 93 89
e 93 83
e 93 82
e 93 81
e 93 73
e 93 71
e 93 69
e 93 63
e 93 60
e 93 57
e 93 53
e 93 49
e 93 45
e 93 43
e 93 38
e 93 33
e 93 27
e 93 16
e 93 5
e 94 106
e 94 118
e 94 104
e 94 114
e 94 95
e 94 96
e 94 97
e 94 98
e 94 99
e 94 105
e 94 116
e 94 93
e 94 92
e 94 91
e 94 90
e 94 89
e 94 84
e 94 83
e 94 82
e 94 74
e 94 72
e 94 70
e 94 64
e 94 61
e 94 58
e 94 54
e 94 50
e 94 46
e 94 44
e 94 39
e 94 34
e 94 28
e 94 17
e 94 6
e 95 107
e 95 119
e 95 105
e 95 115
e 95 96
e 95 97
e 95 98
e 95 99
e 95 106
e 95 117
e 95 94
e 95 93
e 95 92
e 95 91
e 95 90
e 95 89
e 95 85
e 95 84
e 95 83
e 95 75
e 95 73
e 95 71
e 95 65
e 95 62
e 95 59
e 95 55
e 95 51
e 95 47
e 95 40
e 95 35
e 95 29
e 95 23
e 95 18
e 95 7
e 96 108
e 96 120
e 96 106
e 96 116
e 96 97
e 96 98
e 96 99
e 96 107
e 96 118
e 96 95
e 96 94
e 96 93
e 96 92
e 96 91
e 96 90
e 96 89
e 96 86
e 96 85
e 96 84
e 96 76
e 96 74
e 96 72
e 96 66
e 96 63
e 96 60
e 96 52
e 96 48
e 96 41
e 96 36
e 96 30
e 96 24
e 96 19
e 96 12
e 96 8
e 97 109
e 97 121
e 97 107
e 97 117
e 97 98
e 97 99
e 97 108
e 97 119
e 97 96
e 97 95
e 97 94
e 97 93
e 97 92
e 97 91
e 97 90
e 97 89
e 97 87
e 97 86
e 97 85
e 97 77
e 97 75
e 97 73
e 97 64
e 97 61
e 97 53
e 97 49
e 97 42
e 97 37
e 97 31
e 97 25
e 97 20
e 97 13
e 97 9
e 97 1
e 98 110
e 98 108
e 98 118
e 98 99
e 98 109
e 98 120
e 98 97
e 98 96
e 98 95
e 98 94
e 98 93
e 98 92
e 98 91
e 98 90
e 98 89
e 98 88
e 98 87
e 98 86
e 98 76
e 98 74
e 98 65
e 98 62
e 98 54
e 98 50
e 98 43
e 98 38
e 98 32
e 98 26
e 98 21
e 98 14
e 98 10
e 98 2
e 99 109
e 99 119
e 99 110
e 99 121
e 99 98
e 99 97
e 99 96
e 99 95
e 99 94
e 99 93
e 99 92
e 99 91
e 99 90
e 99 89
e 99 88
e 99 87
e 99 77
e 99 75
e 99 66
e 99 63
e 99 55
e 99 51
e 99 44
e 99 39
e 99 33
e 99 27
e 99 22
e 99 15
e 99 11
e 99 3
e 100 112
e 100 101
e 100 102
e 100 103
e 100 104
e 100 105
e 100 106
e 100 107
e 100 108
e 100 109
e 100 110
e 100 111
e 100 90
e 100 89
e 100 80
e 100 78
e 100 70
e 100 67
e 100 60
e 100 56
e 100 50
e 100 45
e 100 40
e 100 34
e 100 30
e 100 23
e 100 20
e 100 12
e 100 10
e 100 1
e 101 113
e 101 111
e 101 102
e 101 103
e 101 104
e 101 105
e 101 106
e 101 107
e 101 108
e 101 109
e 101 110
e 101 112
e 101 100
e 101 91
e 101 90
e 101 89
e 101 81
e 101 79
e 101 71
e 101 68
e 101 61
e 101 57
e 101 51
e 101 46
e 101 41
e 101 35
e 101 31
e 101 24
e 101 21
e 101 13
e 101 11
e 101 2
e 102 114
e 102 112
e 102 103
e 102 104
e 102 105
e 102 106
e 102 107
e 102 108
e 102 109
e 102 110
e 102 113
e 102 101
e 102 100
e 102 92
e 102 91
e 102 90
e 102 82
e 102 80
e 102 78
e 102 72
e 102 69
e 102 62
e 102 58
e 102 52
e 102 47
e 102 42
e 102 36
e 102 32
e 102 25
e 102 22
e 102 14
e 102 3
e 103 115
e 103 113
e 103 104
e 103 105
e 103 106
e 103 107
e 103 108
e 103 109
e 103 110
e 103 114
e 103 102
e 103 101
e 103 100
e 103 93
e 103 92
e 103 91
e 103 83
e 103 81
e 103 79
e 103 73
e 103 70
e 103 67
e 103 63
e 103 59
e 103 53
e 103 48
e 103 43
e 103 37
e 103 33
e 103 26
e 103 15
e 103 4
e 104 116
e 104 114
e 104 105
e 104 106
e 104 107
e 104 108
e 104 109
e 104 110
e 104 115
e 104 103
e 104 102
e 104 101
e 104 100
e 104 94
e 104 93
e 104 92
e 104 84
e 104 82
e 104 80
e 104 74
e 104 71
e 104 68
e 104 64
e 104 60
e 104 56
e 104 54
e 104 49
e 104 44
e 104 38
e 104 27
e 104 16
e 104 5
e 105 117
e 105 115
e 105 106
e 105 107
e 105 108
e 105 109
e 105 110
e 105 116
e 105 104
e 105 103
e 105 102
e 105 101
e 105 100
e 105 95
e 105 94
e 105 93
e 105 85
e 105 83
e 105 81
e 105 75
e 105 72
e 105 69
e 105 65
e 105 61
e 105 57
e 105 55
e 105 50
e 105 45
e 105 39
e 105 28
e 105 17
e 105 6
e 106 118
e 106 116
e 106 107
e 106 108
e 106 109
e 106 110
e 106 117
e 106 105
e 106 104
e 106 103
e 106 102
e 106 101
e 106 100
e 106 96
e 106 95
e 106 94
e 106 86
e 106 84
e 106 82
e 106 76
e 106 73
e 106 70
e 106 66
e 106 62
e 106 58
e 106 51
e 106 46
e 106 40
e 106 34
e 106 29
e 106 18
e 106 7
e 107 119
e 107 117
e 107 108
e 107 109
e 107 110
e 107 118
e 107 106
e 107 105
e 107 104
e 107 103
e 107 102
e 107 101
e 107 100
e 107 97
e 107 96
e 107 95
e 107 87
e 107 85
e 107 83
e 107 77
e 107 74
e 107 71
e 107 63
e 107 59
e 107 52
e 107 47
e 107 41
e 107 35
e 107 30
e 107 23
e 107 19
e 107 8
e 108 120
e 108 118
e 108 109
e 108 110
e 108 119
e 108 107
e 108 106
e 108 105
e 108 104
e 108 103
e 108 102
e 108 101
e 108 100
e 108 98
e 108 97
e 108 96
e 108 88
e 108 86
e 108 84
e 108 75
e 108 72
e 108 64
e 108 60
e 108 53
e 108 48
e 108 42
e 108 36
e 108 31
e 108 24
e 108 20
e 108 12
e 108 9
e 109 121
e 109 119
e 109 110
e 109 120
e 109 108
e 109 107
e 109 106
e 109 105
e 109 104
e 109 103
e 109 102
e 109 101
e 109 100
e 109 99
e 109 98
e 109 97
e 109 87
e 109 85
e 109 76
e 109 73
e 109 65
e 109 61
e 109 54
e 109 49
e 109 43
e 109 37
e 109 32
e 109 25
e 109 21
e 109 13
e 109 10
e 109 1
e 110 120
e 110 121
e 110 109
e 110 108
e 110 107
e 110 106
e 110 105
e 110 104
e 110 103
e 110 102
e 110 101
e 110 100
e 110 99
e 110 98
e 110 88
e 110 86
e 110 77
e 110 74
e 110 66
e 110 62
e 110 55
e 110 50
e 110 44
e 110 38
e 110 33
e 110 26
e 110 22
e 110 14
e 110 11
e 110 2
e 111 112
e 111 113
e 111 114
e 111 115
e 111 116
e 111 117
e 111 118
e 111 119
e 111 120
e 111 121
e 111 101
e 111 100
e 111 91
e 111 89
e 111 81
e 111 78
e 111 71
e 111 67
e 111 61
e 111 56
e 111 51
e 111 45
e 111 41
e 111 34
e 111 31
e 111 23
e 111 21
e 111 12
e 111 11
e 111 1
e 112 113
e 112 114
e 112 115
e 112 116
e 112 117
e 112 118
e 112 119
e 112 120
e 112 121
e 112 111
e 112 102
e 112 101
e 112 100
e 112 92
e 112 90
e 112 82
e 112 79
e 112 72
e 112 68
e 112 62
e 112 57
e 112 52
e 112 46
e 112 42
e 112 35
e 112 32
e 112 24
e 112 22
e 112 13
e 112 2
e 113 114
e 113 115
e 113 116
e 113 117
e 113 118
e 113 119
e 113 120
e 113 121
e 113 112
e 113 111
e 113 103
e 113 102
e 113 101
e 113 93
e 113 91
e 113 89
e 113 83
e 113 80
e 113 73
e 113 69
e 113 63
e 113 58
e 113 53
e 113 47
e 113 43
e 113 36
e 113 33
e 113 25
e 113 14
e 113 3
e 114 115
e 114 116
e 114 117
e 114 118
e 114 119
e 114 120
e 114 121
e 114 113
e 114 112
e 114 111
e 114 104
e 114 103
e 114 102
e 114 94
e 114 92
e 114 90
e 114 84
e 114 81
e 114 78
e 114 74
e 114 70
e 114 64
e 114 59
e 114 54
e 114 48
e 114 44
e 114 37
e 114 26
e 114 15
e 114 4
e 115 116
e 115 117
e 115 118
e 115 119
e 115 120
e 115 121
e 115 114
e 115 113
e 115 112
e 115 111
e 115 105
e 115 104
e 115 103
e 115 95
e 115 93
e 115 91
e 115 85
e 115 82
e 115 79
e 115 75
e 115 71
e 115 67
e 115 65
e 115 60
e 115 55
e 115 49
e 115 38
e 115 27
e 115 16
e 115 5
e 116 117
e 116 118
e 116 119
e 116 120
e 116 121
e 116 115
e 116 114
e 116 113
e 116 112
e 116 111
e 116 106
e 116 105
e 116 104
e 116 96
e 116 94
e 116 92
e 116 86
e 116 83
e 116 80
e 116 76
e 116 72
e 116 68
e 116 66
e 116 61
e 116 56
e 116 50
e 116 39
e 116 28
e 116 17
e 116 6
e 117 118
e 117 119
e 117 120
e 117 121
e 117 116
e 117 115
e 117 114
e 117 113
e 117 112
e 117 111
e 117 107
e 117 106
e 117 105
e 117 97
e 117 95
e 117 93
e 117 87
e 117 84
e 117 81
e 117 77
e 117 73
e 117 69
e 117 62
e 117 57
e 117 51
e 117 45
e 117 40
e 117 29
e 117 18
e 117 7
e 118 119
e 118 120
e 118 121
e 118 117
e 118 116
e 118 115
e 118 114
e 118 113
e 118 112
e 118 111
e 118 108
e 118 107
e 118 106
e 118 98
e 118 96
e 118 94
e 118 88
e 118 85
e 118 82
e 118 74
e 118 70
e 118 63
e 118 58
e 118 52
e 118 46
e 118 41
e 118 34
e 118 30
e 118 19
e 118 8
e 119 120
e 119 121
e 119 118
e 119 117
e 119 116
e 119 115
e 119 114
e 119 113
e 119 112
e 119 111
e 119 109
e 119 108
e 119 107
e 119 99
e 119 97
e 119 95
e 119 86
e 119 83
e 119 75
e 119 71
e 119 64
e 119 59
e 119 53
e 119 47
e 119 42
e 119 35
e 119 31
e 119 23
e 119 20
e 119 9
e 120 121
e 120 119
e 120 118
e 120 117
e 120 116
e 120 115
e 120 114
e 120 113
e 120 112
e 120 111
e 120 110
e 120 109
e 120 108
e 120 98
e 120 96
e 120 87
e 120 84
e 120 76
e 120 72
e 120 65
e 120 60
e 120 54
e 120 48
e 120 43
e 120 36
e 120 32
e 120 24
e 120 21
e 120 12
e 120 10
e 121 120
e 121 119
e 121 118
e 121 117
e 121 116
e 121 115
e 121 114
e 121 113
e 121 112
e 121 111
e 121 110
e 121 109
e 121 99
e 121 97
e 121 88
e 121 85
e 121 77
e 121 73
e 121 66
e 121 61
e 121 55
e 121 49
e 121 44
e 121 37
e 121 33
e 121 25
e 121 22
e 121 13
e 121 11
e 121 1
